100
32
1
7
14
4
3
3
4
11
1
12
1
18
16
4
1
26
17
7
9
18
8
8
2
1
15
10
1
16
1
1
8
5
1
1
2
17
1
3
2
5
2
4
1
3
1
17
1
19
18
1
1
2
7
2
2
2
2
1
2
1
2
5
1
2
1
3
17
2
1
3
1
2
1
6
3
1
19
2
18
2
4
3
3
1
2
1
5
3
1
1
2
2
19
1
17
1
1
4
2
5